(declare-const a Real)
(declare-const b Real)
(declare-const c Real)
(assert (= (+ a b c) 3))
(assert (> a 0))
(assert (> b 0))
(assert (> c 0))
(assert (not (<= (+ (* (pow (+ (* 4480 (pow b 3)) (* 1080 c (pow (+ (* (/ 1 2) a) (* (/ 1 2) b)) 4)) (* 3200 (pow b 3) (pow c 2)) (* 4480 (pow b 2) (pow c 3))) -1) (pow (+ (* 1080 c (pow (+ (* (/ 1 2) a) (* (/ 1 2) b)) 4)) (* 3200 (pow b 3) (pow c 2)) (* 4480 a (pow b 3)) (* 4480 (pow b 2) (pow c 3))) 2)) (* -24320 a (pow c 4)) (* -24320 b (pow a 4)) (* -23660 c (pow b 4)) (* -4864 a (pow b 4)) (* -4864 b (pow c 4)) (* -4480 (pow a 2) (pow c 3)) (* -4480 (pow a 3) (pow b 2)) (* -4204 c (pow a 4)) (* 12160 (pow a 3) (pow c 2)) (* 21504 a b (pow c 3)) (* 24144 a c (pow b 3)) (* 24144 b c (pow a 3))) 0)))
(check-sat)
(get-model)
(exit)